c SAT problem
p wcnf 379 1009
1 90 -3165 0
1 105 3135 0
1 -3165 136 0
1 120 3135 0
1 -135 136 0
1 135 -3090 0
1 135 3060 0
1 150 3075 0
1 150 3015 0
1 150 3030 0
1 165 3045 0
1 165 166 0
1 -3075 165 0
1 3075 -210 0
1 -3075 180 0
1 3075 -3060 0
1 3075 -255 0
1 -3090 226 0
1 3090 -3091 0
1 3090 -120 0
1 -3090 -255 0
1 3105 -105 0
1 3105 -211 0
1 3105 -181 0
1 180 3060 0
1 180 181 0
1 -195 3015 0
1 -225 -226 0
1 3000 150 0
1 3015 -150 0
1 -3015 315 0
1 -3030 -300 0
1 3030 270 0
1 -3030 240 0
1 -3030 150 0
1 3030 285 0
1 3045 3046 0
1 -61 3330 0
1 76 -75 0
1 -91 -3345 0
1 -91 -3315 0
1 -106 -3330 0
1 -106 3285 0
1 106 3255 0
1 -3300 3301 0
1 3300 76 0
1 -3315 3300 0
1 -3315 76 0
1 3330 61 0
1 3345 -106 0
1 -3345 76 0
1 3345 -122 0
1 121 3240 0
1 121 -3150 0
1 -136 -121 0
1 151 3270 0
1 -151 -3180 0
1 -151 3255 0
1 151 -3195 0
1 166 -3315 0
1 166 3225 0
1 3240 -3255 0
1 3240 -226 0
1 -3240 -136 0
1 3240 106 0
1 -3240 121 0
1 -3240 -91 0
1 3255 -196 0
1 3255 -106 0
1 3255 -211 0
1 -3255 -3256 0
1 -3270 -256 0
1 3270 -182 0
1 -3285 -166 0
1 -3285 241 0
1 -181 -3105 0
1 -181 196 0
1 181 182 0
1 -181 -3135 0
1 196 197 0
1 196 -3180 0
1 196 3225 0
1 -211 -3105 0
1 -211 -226 0
1 211 -3210 0
1 -211 -3180 0
1 -211 -3121 0
1 211 3166 0
1 -226 -3240 0
1 226 -3210 0
1 226 3180 0
1 -226 -3090 0
1 226 3195 0
1 -3180 270 0
1 3180 255 0
1 3195 -3180 0
1 -3195 270 0
1 3225 3210 0
1 -3225 271 0
1 -3225 241 0
1 -240 241 0
1 -240 3121 0
1 240 3030 0
1 240 -255 0
1 -255 -3105 0
1 255 -3136 0
1 255 -3151 0
1 -255 -240 0
1 -255 3121 0
1 -255 -3060 0
1 255 3030 0
1 -270 -3136 0
1 270 3180 0
1 -270 3091 0
1 270 3061 0
1 270 3030 0
1 270 -3195 0
1 270 -285 0
1 -285 3076 0
1 -285 -3045 0
1 -285 -3151 0
1 -285 -3091 0
1 -3121 300 0
1 3121 240 0
1 3121 211 0
1 -3121 -345 0
1 3136 -211 0
1 -3136 255 0
1 3151 270 0
1 3151 -240 0
1 -3151 3152 0
1 -3151 346 0
1 3151 255 0
1 -3166 -240 0
1 3166 -346 0
1 -3166 -255 0
1 -300 3076 0
1 300 3030 0
1 300 3000 0
1 315 3106 0
1 -315 -3045 0
1 -315 3015 0
1 -330 331 0
1 -330 -3121 0
1 345 3136 0
1 345 -3016 0
1 -345 -330 0
1 -345 -3031 0
1 3061 3076 0
1 3061 390 0
1 -3061 300 0
1 -3061 375 0
1 -3076 -390 0
1 3076 270 0
1 3076 375 0
1 -3076 345 0
1 -3091 406 0
1 3091 -345 0
1 -3106 -420 0
1 3106 -391 0
1 -3106 -361 0
1 -3106 330 0
1 -3106 -270 0
1 -3106 3091 0
1 360 3016 0
1 360 3031 0
1 -375 -3046 0
1 375 3061 0
1 375 3031 0
1 -390 391 0
1 405 -3031 0
1 -3001 480 0
1 -3001 -390 0
1 3001 -495 0
1 3001 -345 0
1 -3016 -330 0
1 -3031 420 0
1 -3031 435 0
1 3031 3032 0
1 -3046 -480 0
1 3046 -330 0
1 3046 -375 0
1 -77 -3480 0
1 -77 -62 0
1 -92 -107 0
1 92 -91 0
1 107 3525 0
1 -107 -106 0
1 107 -3450 0
1 -3480 3495 0
1 -3480 77 0
1 -3480 -3481 0
1 -3495 3496 0
1 -3495 -183 0
1 -3510 -183 0
1 3510 -123 0
1 3525 3510 0
1 -122 -3330 0
1 -122 3465 0
1 122 121 0
1 -122 123 0
1 122 -3420 0
1 -137 -3450 0
1 137 -3480 0
1 137 -3420 0
1 152 -3360 0
1 152 -3405 0
1 -152 151 0
1 -152 3450 0
1 152 3390 0
1 167 -166 0
1 -3420 -242 0
1 3420 -152 0
1 3420 122 0
1 -3435 -197 0
1 3450 -257 0
1 -3465 -198 0
1 3465 3466 0
1 182 3360 0
1 182 -3435 0
1 -182 3315 0
1 197 3285 0
1 197 182 0
1 -212 -3270 0
1 -212 3375 0
1 -212 3285 0
1 227 -3316 0
1 227 3390 0
1 3360 -3361 0
1 -3360 -197 0
1 3360 -241 0
1 -3360 -317 0
1 -3390 227 0
1 3390 272 0
1 -3390 242 0
1 -3390 182 0
1 3405 -257 0
1 -3405 -242 0
1 -241 -3270 0
1 241 -3225 0
1 256 257 0
1 256 3210 0
1 -256 3225 0
1 -271 3271 0
1 271 3346 0
1 -286 3331 0
1 286 3301 0
1 286 3241 0
1 286 -271 0
1 286 3286 0
1 -3301 -362 0
1 3301 -271 0
1 -3301 -241 0
1 -3301 377 0
1 -3301 316 0
1 3316 256 0
1 3316 -331 0
1 3316 -241 0
1 -3316 3315 0
1 -3316 -316 0
1 -3331 -3332 0
1 3346 -256 0
1 -3346 -241 0
1 3346 377 0
1 -301 3271 0
1 -301 -302 0
1 -301 3256 0
1 301 3225 0
1 -316 3301 0
1 -316 3316 0
1 331 330 0
1 331 -332 0
1 -331 3316 0
1 331 -3256 0
1 331 346 0
1 346 3256 0
1 -346 3196 0
1 -3241 3256 0
1 3241 -421 0
1 -3241 376 0
1 3241 -286 0
1 -3256 331 0
1 -3256 -301 0
1 3256 -406 0
1 3256 376 0
1 3256 -3257 0
1 3256 346 0
1 -3271 331 0
1 3271 -301 0
1 3271 3286 0
1 3271 -286 0
1 3286 301 0
1 -3286 3285 0
1 3286 377 0
1 361 -360 0
1 -361 3211 0
1 -361 3121 0
1 361 -376 0
1 361 -3196 0
1 376 3136 0
1 376 -3091 0
1 376 3166 0
1 391 392 0
1 391 -3122 0
1 -391 -3196 0
1 406 3106 0
1 -406 -3241 0
1 406 3167 0
1 -3181 481 0
1 3181 376 0
1 3181 346 0
1 -3196 465 0
1 3196 -346 0
1 3211 -421 0
1 3211 361 0
1 3211 -406 0
1 3226 451 0
1 -3226 421 0
1 3226 -406 0
1 -420 3122 0
1 -420 435 0
1 -435 -3137 0
1 -435 -420 0
1 -435 -3122 0
1 435 -436 0
1 -450 3046 0
1 -465 3077 0
1 465 3152 0
1 465 -3092 0
1 -465 -3062 0
1 -465 3167 0
1 3122 3137 0
1 -3122 556 0
1 3122 -435 0
1 -3122 3123 0
1 -3122 406 0
1 3122 510 0
1 -3137 -556 0
1 3137 525 0
1 -3137 465 0
1 3152 -3151 0
1 3167 -391 0
1 -3167 496 0
1 -3167 511 0
1 480 -3107 0
1 -480 495 0
1 495 -3107 0
1 -495 3122 0
1 -495 -3001 0
1 510 511 0
1 -525 3047 0
1 525 -3092 0
1 -3062 -3077 0
1 -3077 -585 0
1 3077 525 0
1 3077 -3062 0
1 3077 570 0
1 3107 450 0
1 -3107 525 0
1 -3107 -600 0
1 3107 -510 0
1 -540 -3032 0
1 -540 3002 0
1 555 556 0
1 570 -3017 0
1 -570 -3062 0
1 -570 -571 0
1 -585 3002 0
1 585 3017 0
1 -3002 -555 0
1 3002 660 0
1 3002 3001 0
1 3002 3003 0
1 3017 -675 0
1 -3032 615 0
1 -3032 3047 0
1 3047 -3046 0
1 -3047 -585 0
1 3047 630 0
1 63 3705 0
1 63 -62 0
1 78 -3660 0
1 108 -3690 0
1 108 107 0
1 -108 -3630 0
1 108 3705 0
1 108 -3675 0
1 108 93 0
1 -3660 138 0
1 3660 93 0
1 3660 63 0
1 -3675 -3660 0
1 -3675 -78 0
1 3675 153 0
1 -3690 -3705 0
1 3705 -3690 0
1 123 3675 0
1 123 -3615 0
1 138 3525 0
1 -138 -3600 0
1 -138 -123 0
1 -153 168 0
1 153 -3660 0
1 153 3630 0
1 153 3600 0
1 153 -152 0
1 -168 167 0
1 168 3630 0
1 -168 3510 0
1 -3600 -228 0
1 -3600 -138 0
1 3600 -213 0
1 -3600 -3615 0
1 -3615 -3616 0
1 -3615 -198 0
1 3630 -108 0
1 3630 243 0
1 3645 123 0
1 -183 -3585 0
1 213 -3585 0
1 -213 -3555 0
1 -213 -228 0
1 213 -3540 0
1 228 -3526 0
1 -228 3465 0
1 -228 -3570 0
1 -228 -3450 0
1 3540 -257 0
1 -3540 -272 0
1 -3540 183 0
1 3555 -257 0
1 3555 -3556 0
1 3555 -272 0
1 3555 242 0
1 -3555 3540 0
1 -3570 -288 0
1 -3570 258 0
1 3570 -168 0
1 3570 243 0
1 -3570 -3571 0
1 -3570 213 0
1 3570 -183 0
1 -3585 -258 0
1 -3585 228 0
1 3585 303 0
1 3585 3570 0
1 3585 -183 0
1 -242 3405 0
1 242 -243 0
1 -242 -3481 0
1 242 -3390 0
1 -257 -258 0
1 257 -3435 0
1 -272 -3466 0
1 272 273 0
1 272 3451 0
1 272 287 0
1 -287 -3555 0
1 287 -286 0
1 -3481 332 0
1 3481 272 0
1 -3481 347 0
1 -3481 287 0
1 3496 -378 0
1 3511 257 0
1 -3511 -303 0
1 3511 378 0
1 3526 -257 0
1 -3526 -213 0
1 -3526 3511 0
1 -3526 348 0
1 302 3436 0
1 -302 303 0
1 -302 3346 0
1 -302 -3421 0
1 317 3496 0
1 317 3451 0
1 332 -3331 0
1 332 -3466 0
1 332 -333 0
1 332 3421 0
1 -347 3466 0
1 347 3406 0
1 -3421 -302 0
1 3421 -437 0
1 -3421 -287 0
1 -3436 -392 0
1 -3436 -317 0
1 3451 363 0
1 3451 -302 0
1 -3451 -347 0
1 -3451 -317 0
1 3466 -332 0
1 362 3361 0
1 362 -361 0
1 -362 3286 0
1 362 -377 0
1 -377 362 0
1 377 3376 0
1 -377 378 0
1 -377 -3421 0
1 392 -3302 0
1 -392 393 0
1 407 -3332 0
1 407 -3436 0
1 -407 3376 0
1 407 -3317 0
1 3361 421 0
1 3361 466 0
1 -3376 -451 0
1 3376 421 0
1 3376 -392 0
1 -3376 436 0
1 3376 -347 0
1 -3391 -407 0
1 3391 -3390 0
1 -3406 -3407 0
1 3406 -497 0
1 421 -3332 0
1 -421 -3302 0
1 -421 3347 0
1 -421 436 0
1 436 3347 0
1 451 3332 0
1 -451 -3211 0
1 -451 -3317 0
1 451 3287 0
1 -466 3361 0
1 466 451 0
1 466 -3332 0
1 -466 3226 0
1 3302 -421 0
1 3302 407 0
1 3302 511 0
1 3317 -451 0
1 -3317 -496 0
1 -3317 466 0
1 3317 -436 0
1 -3317 3316 0
1 -3332 -466 0
1 3347 497 0
1 3347 -466 0
1 -481 -480 0
1 481 3272 0
1 481 3211 0
1 481 3181 0
1 -481 3317 0
1 -481 -3257 0
1 481 3226 0
1 481 -3196 0
1 481 -3167 0
1 496 481 0
1 -496 495 0
1 496 -497 0
1 -511 3152 0
1 511 -3287 0
1 511 -3197 0
1 511 510 0
1 -526 525 0
1 526 -527 0
1 3242 3241 0
1 -3242 -586 0
1 -3242 -556 0
1 -3257 556 0
1 -3257 -526 0
1 3257 466 0
1 3257 -601 0
1 3257 -571 0
1 3272 -481 0
1 -3272 -616 0
1 -3272 466 0
1 -3287 466 0
1 541 3137 0
1 -541 3242 0
1 -541 3182 0
1 -541 3152 0
1 556 -555 0
1 -556 3257 0
1 556 3227 0
1 571 -3242 0
1 571 3182 0
1 571 -3123 0
1 571 3257 0
1 571 570 0
1 -571 -3197 0
1 586 -3168 0
1 -586 3138 0
1 -586 3107 0
1 -586 -3153 0
1 586 -3123 0
1 586 -3092 0
1 3182 676 0
1 3182 615 0
1 -3182 -600 0
1 -3197 -676 0
1 3197 -630 0
1 3197 600 0
1 -3197 571 0
1 3197 -541 0
1 -3212 -3227 0
1 3212 -511 0
1 -3227 571 0
1 -3227 -541 0
1 -3227 511 0
1 600 -3107 0
1 -600 3182 0
1 -615 -3107 0
1 615 -3077 0
1 630 645 0
1 -630 3123 0
1 -630 -3093 0
1 -645 -3108 0
1 645 3047 0
1 3123 -3138 0
1 3123 645 0
1 -3123 690 0
1 3123 600 0
1 -3138 675 0
1 -3138 -721 0
1 3153 645 0
1 3153 -721 0
1 3153 630 0
1 3168 -736 0
1 -3168 -706 0
1 -660 -3017 0
1 660 -3032 0
1 660 3002 0
1 -675 3078 0
1 690 -3078 0
1 -690 3018 0
1 705 -690 0
1 -705 3003 0
1 -3063 -645 0
1 -3063 -3062 0
1 3078 -675 0
1 -3078 645 0
1 3078 -750 0
1 3078 -660 0
1 3093 -736 0
1 3093 705 0
1 3108 -721 0
1 3108 630 0
1 720 721 0
1 -735 3063 0
1 735 3033 0
1 3003 -765 0
1 -3018 -3003 0
1 -3033 705 0
1 -3033 -735 0
1 -3048 720 0
1 -243 -258 0
1 -258 -3691 0
1 258 -3661 0
1 -258 243 0
1 273 -3661 0
1 -273 -3631 0
1 -273 3570 0
1 -273 3646 0
1 288 -3616 0
1 -288 3631 0
1 3661 -3676 0
1 3706 258 0
1 3706 -243 0
1 303 -3526 0
1 318 3526 0
1 318 -3676 0
1 318 -3646 0
1 333 -3616 0
1 -333 -3646 0
1 348 -3601 0
1 -348 3646 0
1 3601 -3616 0
1 3601 348 0
1 3616 273 0
1 3631 -333 0
1 3631 -303 0
1 3631 438 0
1 3646 288 0
1 363 -3586 0
1 -363 3466 0
1 363 3571 0
1 -363 3511 0
1 363 -3451 0
1 378 3526 0
1 -378 -3571 0
1 393 3616 0
1 393 408 0
1 408 393 0
1 408 3601 0
1 3541 -378 0
1 3556 452 0
1 3556 3555 0
1 3571 468 0
1 3586 3587 0
1 3586 423 0
1 -422 3527 0
1 437 -422 0
1 437 -3466 0
1 -437 3436 0
1 -437 438 0
1 -452 453 0
1 452 -3527 0
1 -452 3512 0
1 452 -3452 0
1 -467 -3556 0
1 -467 -3527 0
1 467 -3437 0
1 467 -3541 0
1 -467 3512 0
1 3482 482 0
1 3482 452 0
1 -3482 422 0
1 -3497 393 0
1 -3497 558 0
1 -3497 -527 0
1 -3497 437 0
1 -3497 -543 0
1 3512 -452 0
1 -3512 422 0
1 -3512 -393 0
1 3512 -467 0
1 -3512 3511 0
1 3527 513 0
1 -3527 -483 0
1 3527 467 0
1 3527 408 0
1 -497 -482 0
1 -497 -3422 0
1 512 3482 0
1 -512 3422 0
1 -527 3362 0
1 527 3377 0
1 -527 -3347 0
1 -3422 -452 0
1 -3437 452 0
1 -3437 3438 0
1 -3437 -572 0
1 -3452 -617 0
1 -3452 3467 0
1 -3452 -527 0
1 3452 -543 0
1 -3467 -512 0
1 3467 482 0
1 -3467 588 0
1 3467 -558 0
1 -3467 467 0
1 3467 -573 0
1 557 3272 0
1 -557 3377 0
1 -557 3317 0
1 572 -3392 0
1 572 -3362 0
1 572 -3437 0
1 572 -3287 0
1 572 571 0
1 587 3333 0
1 -587 3407 0
1 587 572 0
1 3362 3361 0
1 -3362 -3363 0
1 -3377 -527 0
1 3377 -3378 0
1 -3377 -572 0
1 -3392 -677 0
1 3392 -587 0
1 3392 -527 0
1 3392 -3391 0
1 -3407 617 0
1 3407 527 0
1 3407 602 0
1 -601 -3362 0
1 -601 3333 0
1 -601 -3318 0
1 -616 3257 0
1 616 -3377 0
1 616 -3227 0
1 -631 -3212 0
1 646 647 0
1 -646 3303 0
1 646 3243 0
1 646 3377 0
1 -646 -3348 0
1 -646 -3288 0
1 3303 706 0
1 3318 706 0
1 -3318 -616 0
1 3333 737 0
1 3333 677 0
1 3333 -646 0
1 3348 3333 0
1 3348 -722 0
1 -3348 -662 0
1 -3348 601 0
1 661 -3318 0
1 661 3258 0
1 661 3227 0
1 661 3197 0
1 -676 -3303 0
1 -676 3243 0
1 691 -3273 0
1 691 3243 0
1 706 -3228 0
1 -3243 -691 0
1 3243 766 0
1 3258 -736 0
1 3258 721 0
1 3258 -661 0
1 3258 -766 0
1 -3273 737 0
1 3273 3272 0
1 3288 -676 0
1 3288 -646 0
1 -3288 -661 0
1 721 -3168 0
1 -721 3138 0
1 721 -3213 0
1 736 3108 0
1 -736 -3243 0
1 -736 -3213 0
1 -736 -3183 0
1 736 3153 0
1 736 -3228 0
1 736 735 0
1 -766 -3213 0
1 -766 -767 0
1 -3183 3182 0
1 3183 -766 0
1 -3198 3197 0
1 3228 736 0
1 -3228 3213 0
1 3228 721 0
1 3228 -3227 0
1 423 -3631 0
1 -438 423 0
1 -438 -3707 0
1 438 3646 0
1 453 -3632 0
1 -453 -3571 0
1 468 3586 0
1 -468 453 0
1 -468 3602 0
1 468 -467 0
1 -3662 -3663 0
1 -3662 468 0
1 -3662 438 0
1 -3662 3677 0
1 3677 468 0
1 -3707 3708 0
1 498 -3662 0
1 -513 -3557 0
1 -513 -3572 0
1 -513 -3512 0
1 528 3617 0
1 528 -3557 0
1 -528 3632 0
1 528 3602 0
1 -528 3542 0
1 3602 513 0
1 3602 -498 0
1 3602 3603 0
1 -3617 543 0
1 3632 513 0
1 -3647 483 0
1 3647 -453 0
1 3647 3632 0
1 -543 -3587 0
1 -543 3557 0
1 558 3587 0
1 -558 3467 0
1 558 -3572 0
1 -558 3512 0
1 -573 -3587 0
1 573 3602 0
1 -573 3513 0
1 -573 -3452 0
1 588 -3467 0
1 588 -3602 0
1 588 -3572 0
1 588 -3452 0
1 -3542 678 0
1 3542 -588 0
1 3542 528 0
1 -3542 663 0
1 3557 -647 0
1 -3557 -3558 0
1 -3557 558 0
1 3557 528 0
1 -3572 3587 0
1 3572 558 0
1 3572 -633 0
1 3587 -3586 0
1 -3587 -633 0
1 -602 -3498 0
1 602 -3542 0
1 602 601 0
1 -602 -3422 0
1 617 3557 0
1 -617 -3528 0
1 -617 3498 0
1 617 3407 0
1 617 -602 0
1 -632 3557 0
1 -632 3542 0
1 632 3483 0
1 -632 3453 0
1 632 -3423 0
1 647 3392 0
1 -647 -3528 0
1 -647 3423 0
1 3483 -3498 0
1 -3483 3482 0
1 -3483 -662 0
1 -3498 -3497 0
1 3498 573 0
1 -3513 3512 0
1 -3513 588 0
1 3513 573 0
1 -3528 647 0
1 -3528 588 0
1 -3528 -723 0
1 662 -3333 0
1 -677 -3392 0
1 677 3483 0
1 677 3453 0
1 -692 3408 0
1 -707 -3393 0
1 -707 -706 0
1 3423 -647 0
1 3423 -752 0
1 -3423 722 0
1 -3423 -3422 0
1 -3438 647 0
1 -3453 -753 0
1 3468 -738 0
1 -3468 723 0
1 -3468 3453 0
1 3468 -632 0
1 -722 3408 0
1 -722 3378 0
1 722 -3348 0
1 722 3423 0
1 -737 3363 0
1 -737 3408 0
1 -737 -3318 0
1 752 3393 0
1 752 -3273 0
1 752 -3408 0
1 -752 3288 0
1 752 767 0
1 767 3393 0
1 -767 3423 0
1 3363 -3362 0
1 -3363 -707 0
1 -603 3693 0
1 -618 -3587 0
1 -618 -3708 0
1 633 -3708 0
1 633 3678 0
1 648 3572 0
1 -3663 -3678 0
1 -3663 -603 0
1 -3678 -708 0
1 3678 -618 0
1 3678 -603 0
1 3693 603 0
1 -3708 3707 0
1 -3708 603 0
1 663 3587 0
1 -663 3557 0
1 678 -3648 0
1 678 -677 0
1 -678 -3557 0
1 -678 3528 0
1 -678 -3572 0
1 678 3542 0
1 693 3588 0
1 -693 -3678 0
1 708 -3618 0
1 708 3588 0
1 708 3663 0
1 708 -3573 0
1 708 -3543 0
1 -708 -3513 0
1 3603 -738 0
1 -3618 738 0
1 3633 -693 0
1 -3648 -678 0
1 -3648 -648 0
1 3648 693 0
1 -723 -3618 0
1 -723 -3588 0
1 -723 -3528 0
1 -723 3498 0
1 723 -3573 0
1 -738 3468 0
1 -738 -3603 0
1 738 -3453 0
1 -753 -768 0
1 -753 -3618 0
1 -753 -3558 0
1 768 3588 0
1 -768 -767 0
1 -3543 753 0
1 -3558 -708 0
1 -3558 -3557 0
1 3573 3588 0
1 -3573 693 0
1 -3588 3587 0
1 3588 -708 0
